PROBLEM NAME: eil51_n20
KNAPSACK DATA TYPE: uncorrelated
DIMENSION: 20
NUMBER OF ITEMS: 19
CAPACITY OF KNAPSACK: 5197
MIN SPEED: 0.1
MAX SPEED: 1
RENTING RATIO: 9.80
EDGE_WEIGHT_TYPE: CEIL_2D
NODE_COORD_SECTION	(INDEX, X, Y):
1	20	26
2	17	63
3	31	32
4	5	25
5	36	16
6	27	23
7	13	13
8	57	58
9	62	42
10	27	68
11	43	67
12	46	10
13	61	33
14	32	22
15	10	17
16	5	64
17	30	15
18	39	10
19	32	39
20	30	40
ITEMS SECTION	(INDEX, PROFIT, WEIGHT, ASSIGNED NODE NUMBER):
1	928	539	4
2	848	454	15
3	813	354	7
4	790	280	17
5	773	586	5
6	753	519	18
7	682	337	12
8	652	486	13
9	488	354	9
10	477	851	8
11	393	17	11
12	364	139	10
13	353	938	2
14	264	58	16
15	245	675	20
16	242	954	19
17	234	355	3
18	225	696	14
19	111	936	6
